y_data = [| 991, 1030, 1046, 1081, 4148,
      | 370, 408, 396, 387, 1551 |];
% flatzinc: error: variables of type `var float' are not supported by the FD solver backend.
%      | 247.75, 257.5, 261.5, 270.25, 1037 |];
y_vectors = 2;
y_length = 5;

x_data = [| 1, 353, 378, 396, 387, 1514, 2 | 2, 370, 408, 387, 386, 1551, 1 | 3, 175, 146, 167, 203, 691, 3 | 4, 93, 98, 96, 105, 392, 4 |];
x_columns = 7;
x_rows = 4;

is_same_group = false;
